examples/dis/graph-300-42.dimacs
p cnf 300 1822
c generated by ./gc2s.pl graph-300-42.param
c find W : set of vertices
c find C : set of vertices
c i in C is represented by literal  i (1..n)
c i in W is represented by literal -i (1..n)
c such that 1 in C
1 0
c such that forAll e in E . min(e) in C <-> max(e) in C
c when {1,2} is in E, we add the following two clauses:
c 1 -> 2
c 1 <- 2
-265 282 0
265 -282 0
-15 39 0
15 -39 0
-255 31 0
255 -31 0
-200 228 0
200 -228 0
-109 183 0
109 -183 0
-113 298 0
113 -298 0
-241 269 0
241 -269 0
-16 162 0
16 -162 0
-205 69 0
205 -69 0
-245 67 0
245 -67 0
-11 235 0
11 -235 0
-167 198 0
167 -198 0
-230 56 0
230 -56 0
-128 140 0
128 -140 0
-130 137 0
130 -137 0
-147 71 0
147 -71 0
-121 96 0
121 -96 0
-134 220 0
134 -220 0
-163 4 0
163 -4 0
-15 83 0
15 -83 0
-134 172 0
134 -172 0
-100 245 0
100 -245 0
-1 60 0
1 -60 0
-37 8 0
37 -8 0
-163 275 0
163 -275 0
-149 187 0
149 -187 0
-255 42 0
255 -42 0
-106 150 0
106 -150 0
-118 174 0
118 -174 0
-293 90 0
293 -90 0
-103 160 0
103 -160 0
-100 248 0
100 -248 0
-17 45 0
17 -45 0
-127 25 0
127 -25 0
-102 281 0
102 -281 0
-107 71 0
107 -71 0
-152 272 0
152 -272 0
-137 188 0
137 -188 0
-223 78 0
223 -78 0
-241 65 0
241 -65 0
-205 217 0
205 -217 0
-249 267 0
249 -267 0
-195 300 0
195 -300 0
-148 6 0
148 -6 0
-18 64 0
18 -64 0
-65 96 0
65 -96 0
-218 3 0
218 -3 0
-245 63 0
245 -63 0
-230 24 0
230 -24 0
-119 3 0
119 -3 0
-238 292 0
238 -292 0
-278 79 0
278 -79 0
-150 273 0
150 -273 0
-10 41 0
10 -41 0
-265 71 0
265 -71 0
-192 256 0
192 -256 0
-291 94 0
291 -94 0
-130 42 0
130 -42 0
-26 76 0
26 -76 0
-149 43 0
149 -43 0
-100 296 0
100 -296 0
-131 187 0
131 -187 0
-11 222 0
11 -222 0
-136 9 0
136 -9 0
-187 247 0
187 -247 0
-158 216 0
158 -216 0
-164 63 0
164 -63 0
-143 32 0
143 -32 0
-174 27 0
174 -27 0
-218 54 0
218 -54 0
-42 78 0
42 -78 0
-178 280 0
178 -280 0
-17 88 0
17 -88 0
-252 97 0
252 -97 0
-185 215 0
185 -215 0
-253 42 0
253 -42 0
-202 222 0
202 -222 0
-28 80 0
28 -80 0
-152 31 0
152 -31 0
-129 205 0
129 -205 0
-227 52 0
227 -52 0
-25 278 0
25 -278 0
-14 267 0
14 -267 0
-295 6 0
295 -6 0
-179 51 0
179 -51 0
-15 50 0
15 -50 0
-181 273 0
181 -273 0
-264 98 0
264 -98 0
-172 300 0
172 -300 0
-164 5 0
164 -5 0
-136 2 0
136 -2 0
-167 45 0
167 -45 0
-160 215 0
160 -215 0
-65 95 0
65 -95 0
-50 69 0
50 -69 0
-252 253 0
252 -253 0
-152 87 0
152 -87 0
-11 281 0
11 -281 0
-5 89 0
5 -89 0
-230 99 0
230 -99 0
-270 293 0
270 -293 0
-108 125 0
108 -125 0
-111 94 0
111 -94 0
-250 291 0
250 -291 0
-168 78 0
168 -78 0
-287 78 0
287 -78 0
-219 222 0
219 -222 0
-229 275 0
229 -275 0
-213 67 0
213 -67 0
-192 233 0
192 -233 0
-157 226 0
157 -226 0
-244 78 0
244 -78 0
-250 93 0
250 -93 0
-239 3 0
239 -3 0
-159 69 0
159 -69 0
-109 135 0
109 -135 0
-252 288 0
252 -288 0
-219 255 0
219 -255 0
-186 57 0
186 -57 0
-16 96 0
16 -96 0
-12 99 0
12 -99 0
-130 189 0
130 -189 0
-229 254 0
229 -254 0
-249 70 0
249 -70 0
-73 88 0
73 -88 0
-125 190 0
125 -190 0
-174 78 0
174 -78 0
-193 300 0
193 -300 0
-113 150 0
113 -150 0
-183 77 0
183 -77 0
-178 286 0
178 -286 0
-128 55 0
128 -55 0
-229 3 0
229 -3 0
-117 283 0
117 -283 0
-132 255 0
132 -255 0
-262 92 0
262 -92 0
-292 96 0
292 -96 0
-298 34 0
298 -34 0
-144 208 0
144 -208 0
-186 59 0
186 -59 0
-135 173 0
135 -173 0
-133 236 0
133 -236 0
-138 51 0
138 -51 0
-135 24 0
135 -24 0
-1 171 0
1 -171 0
-241 71 0
241 -71 0
-118 77 0
118 -77 0
-147 153 0
147 -153 0
-132 134 0
132 -134 0
-158 18 0
158 -18 0
-39 5 0
39 -5 0
-142 52 0
142 -52 0
-204 51 0
204 -51 0
-168 27 0
168 -27 0
-111 123 0
111 -123 0
-275 34 0
275 -34 0
-179 99 0
179 -99 0
-160 224 0
160 -224 0
-118 246 0
118 -246 0
-184 60 0
184 -60 0
-210 283 0
210 -283 0
-249 293 0
249 -293 0
-268 87 0
268 -87 0
-11 162 0
11 -162 0
-107 226 0
107 -226 0
-117 193 0
117 -193 0
-22 86 0
22 -86 0
-216 90 0
216 -90 0
-246 9 0
246 -9 0
-181 70 0
181 -70 0
-164 215 0
164 -215 0
-169 26 0
169 -26 0
-103 34 0
103 -34 0
-218 277 0
218 -277 0
-113 209 0
113 -209 0
-196 95 0
196 -95 0
-47 67 0
47 -67 0
-211 244 0
211 -244 0
-163 38 0
163 -38 0
-223 66 0
223 -66 0
-177 296 0
177 -296 0
-102 215 0
102 -215 0
-227 282 0
227 -282 0
-191 205 0
191 -205 0
-17 234 0
17 -234 0
-275 33 0
275 -33 0
-130 36 0
130 -36 0
-188 197 0
188 -197 0
-180 4 0
180 -4 0
-105 114 0
105 -114 0
-143 25 0
143 -25 0
-166 272 0
166 -272 0
-165 209 0
165 -209 0
-218 52 0
218 -52 0
-170 291 0
170 -291 0
-110 257 0
110 -257 0
-107 55 0
107 -55 0
-19 81 0
19 -81 0
-14 300 0
14 -300 0
-150 185 0
150 -185 0
-62 76 0
62 -76 0
-128 294 0
128 -294 0
-186 26 0
186 -26 0
-79 88 0
79 -88 0
-142 274 0
142 -274 0
-130 49 0
130 -49 0
-178 258 0
178 -258 0
-103 77 0
103 -77 0
-134 164 0
134 -164 0
-270 53 0
270 -53 0
-197 267 0
197 -267 0
-216 79 0
216 -79 0
-102 149 0
102 -149 0
-141 208 0
141 -208 0
-242 25 0
242 -25 0
-39 6 0
39 -6 0
-125 195 0
125 -195 0
-108 14 0
108 -14 0
-135 56 0
135 -56 0
-250 99 0
250 -99 0
-203 72 0
203 -72 0
-199 42 0
199 -42 0
-107 23 0
107 -23 0
-153 284 0
153 -284 0
-204 71 0
204 -71 0
-109 210 0
109 -210 0
-226 272 0
226 -272 0
-118 88 0
118 -88 0
-120 274 0
120 -274 0
-183 54 0
183 -54 0
-117 297 0
117 -297 0
-200 80 0
200 -80 0
-131 253 0
131 -253 0
-110 254 0
110 -254 0
-132 15 0
132 -15 0
-181 49 0
181 -49 0
-149 196 0
149 -196 0
-211 24 0
211 -24 0
-197 60 0
197 -60 0
-197 47 0
197 -47 0
-26 46 0
26 -46 0
-107 230 0
107 -230 0
-70 78 0
70 -78 0
-191 233 0
191 -233 0
-114 38 0
114 -38 0
-149 175 0
149 -175 0
-152 29 0
152 -29 0
-161 174 0
161 -174 0
-105 130 0
105 -130 0
-62 81 0
62 -81 0
-200 255 0
200 -255 0
-216 40 0
216 -40 0
-11 54 0
11 -54 0
-223 36 0
223 -36 0
-256 286 0
256 -286 0
-168 251 0
168 -251 0
-114 136 0
114 -136 0
-172 69 0
172 -69 0
-100 12 0
100 -12 0
-159 210 0
159 -210 0
-186 25 0
186 -25 0
-280 48 0
280 -48 0
-120 134 0
120 -134 0
-128 94 0
128 -94 0
-41 76 0
41 -76 0
-118 59 0
118 -59 0
-296 86 0
296 -86 0
-233 296 0
233 -296 0
-159 171 0
159 -171 0
-239 5 0
239 -5 0
-252 42 0
252 -42 0
-217 270 0
217 -270 0
-253 56 0
253 -56 0
-241 5 0
241 -5 0
-298 69 0
298 -69 0
-182 32 0
182 -32 0
-169 296 0
169 -296 0
-116 144 0
116 -144 0
-277 29 0
277 -29 0
-16 247 0
16 -247 0
-189 287 0
189 -287 0
-152 23 0
152 -23 0
-268 61 0
268 -61 0
-176 80 0
176 -80 0
-46 98 0
46 -98 0
-210 40 0
210 -40 0
-273 278 0
273 -278 0
-226 35 0
226 -35 0
-206 219 0
206 -219 0
-220 93 0
220 -93 0
-54 65 0
54 -65 0
-205 220 0
205 -220 0
-108 243 0
108 -243 0
-49 83 0
49 -83 0
-259 91 0
259 -91 0
-137 141 0
137 -141 0
-242 59 0
242 -59 0
-177 87 0
177 -87 0
-16 68 0
16 -68 0
-201 300 0
201 -300 0
-145 40 0
145 -40 0
-243 28 0
243 -28 0
-177 58 0
177 -58 0
-165 257 0
165 -257 0
-202 88 0
202 -88 0
-11 214 0
11 -214 0
-139 169 0
139 -169 0
-105 26 0
105 -26 0
-126 143 0
126 -143 0
-239 69 0
239 -69 0
-127 166 0
127 -166 0
-184 27 0
184 -27 0
-157 169 0
157 -169 0
-101 49 0
101 -49 0
-260 47 0
260 -47 0
-239 6 0
239 -6 0
-262 84 0
262 -84 0
-162 70 0
162 -70 0
-11 209 0
11 -209 0
-155 273 0
155 -273 0
-194 36 0
194 -36 0
-184 99 0
184 -99 0
-110 41 0
110 -41 0
-278 53 0
278 -53 0
-244 60 0
244 -60 0
-165 36 0
165 -36 0
-181 259 0
181 -259 0
-142 25 0
142 -25 0
-124 134 0
124 -134 0
-112 251 0
112 -251 0
-18 31 0
18 -31 0
-30 57 0
30 -57 0
-26 55 0
26 -55 0
-272 278 0
272 -278 0
-148 187 0
148 -187 0
-150 257 0
150 -257 0
-158 58 0
158 -58 0
-120 76 0
120 -76 0
-238 248 0
238 -248 0
-161 96 0
161 -96 0
-201 235 0
201 -235 0
-132 252 0
132 -252 0
-46 52 0
46 -52 0
-25 272 0
25 -272 0
-233 30 0
233 -30 0
-189 215 0
189 -215 0
-132 94 0
132 -94 0
-174 47 0
174 -47 0
-120 60 0
120 -60 0
-118 215 0
118 -215 0
-196 85 0
196 -85 0
-153 243 0
153 -243 0
-130 238 0
130 -238 0
-181 213 0
181 -213 0
-127 54 0
127 -54 0
-164 33 0
164 -33 0
-108 295 0
108 -295 0
-146 250 0
146 -250 0
-230 287 0
230 -287 0
-233 35 0
233 -35 0
-213 286 0
213 -286 0
-20 296 0
20 -296 0
-109 18 0
109 -18 0
-185 85 0
185 -85 0
-255 78 0
255 -78 0
-299 61 0
299 -61 0
-250 300 0
250 -300 0
-235 261 0
235 -261 0
-50 77 0
50 -77 0
-120 121 0
120 -121 0
-101 224 0
101 -224 0
-252 47 0
252 -47 0
-143 21 0
143 -21 0
-38 70 0
38 -70 0
-104 92 0
104 -92 0
-115 165 0
115 -165 0
-15 253 0
15 -253 0
-13 146 0
13 -146 0
-156 237 0
156 -237 0
-285 81 0
285 -81 0
-159 98 0
159 -98 0
-139 46 0
139 -46 0
-211 51 0
211 -51 0
-163 36 0
163 -36 0
-102 194 0
102 -194 0
-111 135 0
111 -135 0
-200 59 0
200 -59 0
-264 80 0
264 -80 0
-63 97 0
63 -97 0
-168 281 0
168 -281 0
-173 214 0
173 -214 0
-12 75 0
12 -75 0
-171 300 0
171 -300 0
-124 57 0
124 -57 0
-234 259 0
234 -259 0
-49 6 0
49 -6 0
-20 87 0
20 -87 0
-247 76 0
247 -76 0
-124 88 0
124 -88 0
-164 212 0
164 -212 0
-177 60 0
177 -60 0
-140 250 0
140 -250 0
-245 8 0
245 -8 0
-233 246 0
233 -246 0
-58 6 0
58 -6 0
-11 126 0
11 -126 0
-227 5 0
227 -5 0
-263 280 0
263 -280 0
-201 24 0
201 -24 0
-187 217 0
187 -217 0
-11 163 0
11 -163 0
-182 296 0
182 -296 0
-183 229 0
183 -229 0
-147 224 0
147 -224 0
-265 274 0
265 -274 0
-139 176 0
139 -176 0
-173 33 0
173 -33 0
-111 275 0
111 -275 0
-111 267 0
111 -267 0
-114 35 0
114 -35 0
-14 251 0
14 -251 0
-145 85 0
145 -85 0
-124 178 0
124 -178 0
-122 226 0
122 -226 0
-290 90 0
290 -90 0
-160 24 0
160 -24 0
-152 194 0
152 -194 0
-100 171 0
100 -171 0
-268 70 0
268 -70 0
-125 279 0
125 -279 0
-278 59 0
278 -59 0
-124 140 0
124 -140 0
-206 300 0
206 -300 0
-246 40 0
246 -40 0
-209 217 0
209 -217 0
-131 195 0
131 -195 0
-256 58 0
256 -58 0
-184 48 0
184 -48 0
-55 7 0
55 -7 0
-105 198 0
105 -198 0
-127 279 0
127 -279 0
-127 263 0
127 -263 0
-134 16 0
134 -16 0
-147 48 0
147 -48 0
-255 292 0
255 -292 0
-253 272 0
253 -272 0
-128 215 0
128 -215 0
-100 263 0
100 -263 0
-27 295 0
27 -295 0
-150 282 0
150 -282 0
-185 211 0
185 -211 0
-164 50 0
164 -50 0
-79 86 0
79 -86 0
-211 272 0
211 -272 0
-156 164 0
156 -164 0
-100 84 0
100 -84 0
-139 295 0
139 -295 0
-150 265 0
150 -265 0
-122 147 0
122 -147 0
-234 29 0
234 -29 0
-103 140 0
103 -140 0
-250 298 0
250 -298 0
-257 4 0
257 -4 0
-103 61 0
103 -61 0
-197 32 0
197 -32 0
-155 288 0
155 -288 0
-106 115 0
106 -115 0
-237 248 0
237 -248 0
-235 6 0
235 -6 0
-124 27 0
124 -27 0
-176 207 0
176 -207 0
-151 23 0
151 -23 0
-273 288 0
273 -288 0
-244 90 0
244 -90 0
-109 252 0
109 -252 0
-16 178 0
16 -178 0
-199 90 0
199 -90 0
-199 81 0
199 -81 0
-124 150 0
124 -150 0
-150 69 0
150 -69 0
-53 6 0
53 -6 0
-158 41 0
158 -41 0
-169 42 0
169 -42 0
-89 94 0
89 -94 0
-12 199 0
12 -199 0
-228 25 0
228 -25 0
-142 242 0
142 -242 0
-190 51 0
190 -51 0
-110 300 0
110 -300 0
-111 173 0
111 -173 0
-138 281 0
138 -281 0
-25 60 0
25 -60 0
-143 204 0
143 -204 0
-138 166 0
138 -166 0
-144 62 0
144 -62 0
-6 95 0
6 -95 0
-205 50 0
205 -50 0
-229 55 0
229 -55 0
-16 213 0
16 -213 0
-135 3 0
135 -3 0
-248 286 0
248 -286 0
-205 259 0
205 -259 0
-231 65 0
231 -65 0
-159 189 0
159 -189 0
-177 79 0
177 -79 0
-241 282 0
241 -282 0
-115 265 0
115 -265 0
-184 80 0
184 -80 0
-246 299 0
246 -299 0
-15 210 0
15 -210 0
-132 57 0
132 -57 0
-160 250 0
160 -250 0
-116 256 0
116 -256 0
-248 68 0
248 -68 0
-195 2 0
195 -2 0
-186 4 0
186 -4 0
-157 47 0
157 -47 0
-108 93 0
108 -93 0
-18 240 0
18 -240 0
-243 50 0
243 -50 0
-182 49 0
182 -49 0
-180 71 0
180 -71 0
-162 21 0
162 -21 0
-133 231 0
133 -231 0
-135 281 0
135 -281 0
-213 269 0
213 -269 0
-166 170 0
166 -170 0
-235 45 0
235 -45 0
-177 225 0
177 -225 0
-105 61 0
105 -61 0
-118 208 0
118 -208 0
-144 284 0
144 -284 0
-104 252 0
104 -252 0
-182 36 0
182 -36 0
-176 275 0
176 -275 0
-112 203 0
112 -203 0
-189 208 0
189 -208 0
-6 8 0
6 -8 0
-185 233 0
185 -233 0
-111 148 0
111 -148 0
-148 56 0
148 -56 0
-121 82 0
121 -82 0
-251 89 0
251 -89 0
-249 271 0
249 -271 0
-125 259 0
125 -259 0
-187 254 0
187 -254 0
-122 179 0
122 -179 0
-119 48 0
119 -48 0
-17 58 0
17 -58 0
-106 89 0
106 -89 0
-24 280 0
24 -280 0
-259 29 0
259 -29 0
-136 153 0
136 -153 0
-175 44 0
175 -44 0
-25 7 0
25 -7 0
-114 178 0
114 -178 0
-289 290 0
289 -290 0
-162 225 0
162 -225 0
-256 7 0
256 -7 0
-218 76 0
218 -76 0
-40 67 0
40 -67 0
-38 43 0
38 -43 0
-185 280 0
185 -280 0
-169 244 0
169 -244 0
-61 63 0
61 -63 0
-210 23 0
210 -23 0
-197 277 0
197 -277 0
-238 67 0
238 -67 0
-15 170 0
15 -170 0
-150 85 0
150 -85 0
-182 198 0
182 -198 0
-39 54 0
39 -54 0
-236 271 0
236 -271 0
-204 5 0
204 -5 0
-133 39 0
133 -39 0
-254 66 0
254 -66 0
-172 99 0
172 -99 0
-17 219 0
17 -219 0
-58 76 0
58 -76 0
-243 84 0
243 -84 0
-184 59 0
184 -59 0
-39 79 0
39 -79 0
-255 289 0
255 -289 0
-289 77 0
289 -77 0
-1 13 0
1 -13 0
-132 21 0
132 -21 0
-21 281 0
21 -281 0
-172 27 0
172 -27 0
-200 254 0
200 -254 0
-36 94 0
36 -94 0
-108 258 0
108 -258 0
-247 295 0
247 -295 0
-199 270 0
199 -270 0
-112 50 0
112 -50 0
-202 99 0
202 -99 0
-119 176 0
119 -176 0
-113 51 0
113 -51 0
-178 47 0
178 -47 0
-174 32 0
174 -32 0
-129 23 0
129 -23 0
-270 279 0
270 -279 0
-101 113 0
101 -113 0
-21 57 0
21 -57 0
-217 255 0
217 -255 0
-13 284 0
13 -284 0
-123 168 0
123 -168 0
-102 134 0
102 -134 0
-115 22 0
115 -22 0
-242 300 0
242 -300 0
-217 222 0
217 -222 0
-83 87 0
83 -87 0
-117 21 0
117 -21 0
-299 96 0
299 -96 0
-10 63 0
10 -63 0
-109 52 0
109 -52 0
-113 38 0
113 -38 0
-108 253 0
108 -253 0
-167 251 0
167 -251 0
-152 211 0
152 -211 0
-186 44 0
186 -44 0
-160 193 0
160 -193 0
-170 229 0
170 -229 0
-115 124 0
115 -124 0
-156 189 0
156 -189 0
-137 192 0
137 -192 0
-247 290 0
247 -290 0
-231 8 0
231 -8 0
-141 77 0
141 -77 0
-210 289 0
210 -289 0
-194 7 0
194 -7 0
-103 127 0
103 -127 0
-248 55 0
248 -55 0
-128 191 0
128 -191 0
-257 30 0
257 -30 0
-10 192 0
10 -192 0
-194 245 0
194 -245 0
-2 261 0
2 -261 0
-135 179 0
135 -179 0
-245 84 0
245 -84 0
-242 283 0
242 -283 0
-129 188 0
129 -188 0
-193 49 0
193 -49 0
-168 247 0
168 -247 0
-161 51 0
161 -51 0
-139 58 0
139 -58 0
-294 5 0
294 -5 0
-294 85 0
294 -85 0
-141 254 0
141 -254 0
-206 22 0
206 -22 0
-118 252 0
118 -252 0
-130 63 0
130 -63 0
-276 47 0
276 -47 0
-271 34 0
271 -34 0
-202 272 0
202 -272 0
-126 150 0
126 -150 0
-180 76 0
180 -76 0
-269 8 0
269 -8 0
-142 239 0
142 -239 0
-172 93 0
172 -93 0
-2 283 0
2 -283 0
-152 244 0
152 -244 0
-104 164 0
104 -164 0
-163 232 0
163 -232 0
-119 146 0
119 -146 0
-294 91 0
294 -91 0
-14 68 0
14 -68 0
-228 4 0
228 -4 0
-105 24 0
105 -24 0
-122 289 0
122 -289 0
-123 48 0
123 -48 0
-138 213 0
138 -213 0
-120 2 0
120 -2 0
-201 21 0
201 -21 0
-283 31 0
283 -31 0
-164 250 0
164 -250 0
-284 32 0
284 -32 0
-272 288 0
272 -288 0
-123 264 0
123 -264 0
-133 166 0
133 -166 0
-253 257 0
253 -257 0
-280 42 0
280 -42 0
-300 68 0
300 -68 0
-1 132 0
1 -132 0
-148 174 0
148 -174 0
-132 150 0
132 -150 0
-244 52 0
244 -52 0
-141 251 0
141 -251 0
-121 61 0
121 -61 0
-19 96 0
19 -96 0
-213 35 0
213 -35 0
-44 99 0
44 -99 0
-138 150 0
138 -150 0
-105 277 0
105 -277 0
-249 294 0
249 -294 0
-34 74 0
34 -74 0
-152 208 0
152 -208 0
-117 221 0
117 -221 0
-215 251 0
215 -251 0
-137 94 0
137 -94 0
-169 93 0
169 -93 0
-20 226 0
20 -226 0
-148 155 0
148 -155 0
-30 73 0
30 -73 0
-210 47 0
210 -47 0
-111 187 0
111 -187 0
-157 292 0
157 -292 0
-277 37 0
277 -37 0
-111 291 0
111 -291 0
-126 62 0
126 -62 0
-119 266 0
119 -266 0
-207 283 0
207 -283 0
-142 153 0
142 -153 0
-158 260 0
158 -260 0
-172 248 0
172 -248 0
-119 33 0
119 -33 0
-149 264 0
149 -264 0
-16 176 0
16 -176 0
-175 267 0
175 -267 0
-214 248 0
214 -248 0
-58 8 0
58 -8 0
-104 5 0
104 -5 0
-192 89 0
192 -89 0
-147 161 0
147 -161 0
-236 91 0
236 -91 0
-14 235 0
14 -235 0
-162 178 0
162 -178 0
-195 8 0
195 -8 0
-45 83 0
45 -83 0
-15 218 0
15 -218 0
-142 209 0
142 -209 0
-142 201 0
142 -201 0
-19 258 0
19 -258 0
-220 81 0
220 -81 0
-248 30 0
248 -30 0
-139 218 0
139 -218 0
-199 239 0
199 -239 0
-193 93 0
193 -93 0
-117 293 0
117 -293 0
-241 4 0
241 -4 0
-129 55 0
129 -55 0
-185 297 0
185 -297 0
-179 237 0
179 -237 0
-272 299 0
272 -299 0
-111 206 0
111 -206 0
-300 58 0
300 -58 0
-203 248 0
203 -248 0
-172 267 0
172 -267 0
-135 240 0
135 -240 0
-300 71 0
300 -71 0
-137 235 0
137 -235 0
-278 299 0
278 -299 0
-28 8 0
28 -8 0
-16 170 0
16 -170 0
-200 87 0
200 -87 0
-180 196 0
180 -196 0
-174 4 0
174 -4 0
-286 31 0
286 -31 0
-116 3 0
116 -3 0
-1 107 0
1 -107 0
-135 54 0
135 -54 0
-217 45 0
217 -45 0
-160 297 0
160 -297 0
-246 286 0
246 -286 0
-111 225 0
111 -225 0
-25 78 0
25 -78 0
-161 87 0
161 -87 0
-220 9 0
220 -9 0
-128 39 0
128 -39 0
-185 76 0
185 -76 0
-121 224 0
121 -224 0
-216 246 0
216 -246 0
-33 7 0
33 -7 0
-200 259 0
200 -259 0
-100 66 0
100 -66 0
-107 141 0
107 -141 0
-183 192 0
183 -192 0
-139 251 0
139 -251 0
-112 256 0
112 -256 0
-279 74 0
279 -74 0
-26 68 0
26 -68 0
-149 242 0
149 -242 0
-245 265 0
245 -265 0
-231 24 0
231 -24 0
-151 60 0
151 -60 0
-188 60 0
188 -60 0
-127 140 0
127 -140 0
-218 4 0
218 -4 0
-269 43 0
269 -43 0
-222 33 0
222 -33 0
-284 40 0
284 -40 0
-246 65 0
246 -65 0
-164 27 0
164 -27 0
-284 67 0
284 -67 0
-205 24 0
205 -24 0
-125 186 0
125 -186 0
-183 223 0
183 -223 0
-3 8 0
3 -8 0
-230 59 0
230 -59 0
-120 287 0
120 -287 0
-78 90 0
78 -90 0
-277 32 0
277 -32 0
-184 274 0
184 -274 0
-30 91 0
30 -91 0
-127 47 0
127 -47 0
-1 188 0
1 -188 0
-288 92 0
288 -92 0
-216 296 0
216 -296 0
-107 19 0
107 -19 0
-139 281 0
139 -281 0
-108 116 0
108 -116 0
-211 298 0
211 -298 0
-37 82 0
37 -82 0
-182 94 0
182 -94 0
-197 7 0
197 -7 0
-162 17 0
162 -17 0
-148 212 0
148 -212 0
-190 42 0
190 -42 0
-271 62 0
271 -62 0
-140 204 0
140 -204 0
-281 33 0
281 -33 0
-161 291 0
161 -291 0
-113 3 0
113 -3 0
-174 199 0
174 -199 0
-122 48 0
122 -48 0
-269 55 0
269 -55 0
-31 5 0
31 -5 0
-148 229 0
148 -229 0
-127 233 0
127 -233 0
-205 269 0
205 -269 0
-173 269 0
173 -269 0
-181 238 0
181 -238 0
-120 132 0
120 -132 0
-180 202 0
180 -202 0
-235 39 0
235 -39 0
-150 286 0
150 -286 0
-182 279 0
182 -279 0
-136 239 0
136 -239 0
-129 84 0
129 -84 0
-1 115 0
1 -115 0
-179 85 0
179 -85 0
-156 20 0
156 -20 0
-146 213 0
146 -213 0
-158 52 0
158 -52 0
-294 81 0
294 -81 0
-233 46 0
233 -46 0
-291 53 0
291 -53 0
-124 76 0
124 -76 0
-228 53 0
228 -53 0
-122 21 0
122 -21 0
-260 48 0
260 -48 0
-130 177 0
130 -177 0
-189 79 0
189 -79 0
-31 53 0
31 -53 0
-18 87 0
18 -87 0
-10 270 0
10 -270 0
-108 232 0
108 -232 0
-240 60 0
240 -60 0
-204 259 0
204 -259 0
-141 199 0
141 -199 0
-183 83 0
183 -83 0
-261 92 0
261 -92 0
-126 54 0
126 -54 0
-163 250 0
163 -250 0
-238 41 0
238 -41 0
-68 99 0
68 -99 0
-10 33 0
10 -33 0
-248 92 0
248 -92 0
-109 236 0
109 -236 0
-227 4 0
227 -4 0
-42 65 0
42 -65 0
-109 73 0
109 -73 0
-133 275 0
133 -275 0
-164 297 0
164 -297 0
-36 6 0
36 -6 0
-47 55 0
47 -55 0
-174 45 0
174 -45 0
-100 145 0
100 -145 0
-237 239 0
237 -239 0
-119 17 0
119 -17 0
-125 33 0
125 -33 0
-197 85 0
197 -85 0
-123 246 0
123 -246 0
-115 161 0
115 -161 0
-144 86 0
144 -86 0
-197 202 0
197 -202 0
-122 144 0
122 -144 0
-184 250 0
184 -250 0
-204 257 0
204 -257 0
-196 71 0
196 -71 0
-130 72 0
130 -72 0
-214 295 0
214 -295 0
-222 95 0
222 -95 0
-173 30 0
173 -30 0
-167 70 0
167 -70 0
-201 210 0
201 -210 0
-202 267 0
202 -267 0
-111 53 0
111 -53 0
-152 181 0
152 -181 0
-130 168 0
130 -168 0
-295 65 0
295 -65 0
-278 49 0
278 -49 0
-132 37 0
132 -37 0
-27 7 0
27 -7 0
-242 265 0
242 -265 0
-63 68 0
63 -68 0
-243 66 0
243 -66 0
-136 259 0
136 -259 0
-51 73 0
51 -73 0
-223 241 0
223 -241 0
-170 257 0
170 -257 0
c satisfiable iff the graph is disconnected
c such that (|C| < |V|)
c -1 -2 -3 ... -n
-1 -2 -3 -4 -5 -6 -7 -8 -9 -10 -11 -12 -13 -14 -15 -16 -17 -18 -19 -20 -21 -22 -23 -24 -25 -26 -27 -28 -29 -30 -31 -32 -33 -34 -35 -36 -37 -38 -39 -40 -41 -42 -43 -44 -45 -46 -47 -48 -49 -50 -51 -52 -53 -54 -55 -56 -57 -58 -59 -60 -61 -62 -63 -64 -65 -66 -67 -68 -69 -70 -71 -72 -73 -74 -75 -76 -77 -78 -79 -80 -81 -82 -83 -84 -85 -86 -87 -88 -89 -90 -91 -92 -93 -94 -95 -96 -97 -98 -99 -100 -101 -102 -103 -104 -105 -106 -107 -108 -109 -110 -111 -112 -113 -114 -115 -116 -117 -118 -119 -120 -121 -122 -123 -124 -125 -126 -127 -128 -129 -130 -131 -132 -133 -134 -135 -136 -137 -138 -139 -140 -141 -142 -143 -144 -145 -146 -147 -148 -149 -150 -151 -152 -153 -154 -155 -156 -157 -158 -159 -160 -161 -162 -163 -164 -165 -166 -167 -168 -169 -170 -171 -172 -173 -174 -175 -176 -177 -178 -179 -180 -181 -182 -183 -184 -185 -186 -187 -188 -189 -190 -191 -192 -193 -194 -195 -196 -197 -198 -199 -200 -201 -202 -203 -204 -205 -206 -207 -208 -209 -210 -211 -212 -213 -214 -215 -216 -217 -218 -219 -220 -221 -222 -223 -224 -225 -226 -227 -228 -229 -230 -231 -232 -233 -234 -235 -236 -237 -238 -239 -240 -241 -242 -243 -244 -245 -246 -247 -248 -249 -250 -251 -252 -253 -254 -255 -256 -257 -258 -259 -260 -261 -262 -263 -264 -265 -266 -267 -268 -269 -270 -271 -272 -273 -274 -275 -276 -277 -278 -279 -280 -281 -282 -283 -284 -285 -286 -287 -288 -289 -290 -291 -292 -293 -294 -295 -296 -297 -298 -299 -300 0
