examples/dis/graph-300-42.param
$ generated by rg.pl with seed 42
letting n be 300
$ 910 edges
letting E be {{170,257},{223,241},{51,73},{136,259},{66,243},{63,68},{242,265},{7,27},{37,132},{49,278},{65,295},{130,168},{152,181},{53,111},{202,267},{201,210},{70,167},{30,173},{95,222},{214,295},{72,130},{71,196},{204,257},{184,250},{122,144},{197,202},{86,144},{115,161},{123,246},{85,197},{33,125},{17,119},{237,239},{100,145},{45,174},{47,55},{6,36},{164,297},{133,275},{73,109},{42,65},{4,227},{109,236},{92,248},{10,33},{68,99},{41,238},{163,250},{54,126},{92,261},{83,183},{141,199},{204,259},{60,240},{108,232},{10,270},{18,87},{31,53},{79,189},{130,177},{48,260},{21,122},{53,228},{76,124},{53,291},{46,233},{81,294},{52,158},{146,213},{20,156},{85,179},{1,115},{84,129},{136,239},{182,279},{150,286},{39,235},{180,202},{120,132},{181,238},{173,269},{205,269},{127,233},{148,229},{5,31},{55,269},{48,122},{174,199},{3,113},{161,291},{33,281},{140,204},{62,271},{42,190},{148,212},{17,162},{7,197},{94,182},{37,82},{211,298},{108,116},{139,281},{19,107},{216,296},{92,288},{1,188},{47,127},{30,91},{184,274},{32,277},{78,90},{120,287},{59,230},{3,8},{183,223},{125,186},{24,205},{67,284},{27,164},{65,246},{40,284},{33,222},{43,269},{4,218},{127,140},{60,188},{60,151},{24,231},{245,265},{149,242},{26,68},{74,279},{112,256},{139,251},{183,192},{107,141},{66,100},{200,259},{7,33},{216,246},{121,224},{76,185},{39,128},{9,220},{87,161},{25,78},{111,225},{246,286},{160,297},{45,217},{54,135},{1,107},{3,116},{31,286},{4,174},{180,196},{87,200},{16,170},{8,28},{278,299},{137,235},{71,300},{135,240},{172,267},{203,248},{58,300},{111,206},{272,299},{179,237},{185,297},{55,129},{4,241},{117,293},{93,193},{199,239},{139,218},{30,248},{81,220},{19,258},{142,201},{142,209},{15,218},{45,83},{8,195},{162,178},{14,235},{91,236},{147,161},{89,192},{5,104},{8,58},{214,248},{175,267},{16,176},{149,264},{33,119},{172,248},{158,260},{142,153},{207,283},{119,266},{62,126},{111,291},{37,277},{157,292},{111,187},{47,210},{30,73},{148,155},{20,226},{93,169},{94,137},{215,251},{117,221},{152,208},{34,74},{249,294},{105,277},{138,150},{44,99},{35,213},{19,96},{61,121},{141,251},{52,244},{132,150},{148,174},{1,132},{68,300},{42,280},{253,257},{133,166},{123,264},{272,288},{32,284},{164,250},{31,283},{21,201},{2,120},{138,213},{48,123},{122,289},{24,105},{4,228},{14,68},{91,294},{119,146},{163,232},{104,164},{152,244},{2,283},{93,172},{142,239},{8,269},{76,180},{126,150},{202,272},{34,271},{47,276},{63,130},{118,252},{22,206},{141,254},{85,294},{5,294},{58,139},{51,161},{168,247},{49,193},{129,188},{242,283},{84,245},{135,179},{2,261},{194,245},{10,192},{30,257},{128,191},{55,248},{103,127},{7,194},{210,289},{77,141},{8,231},{247,290},{137,192},{156,189},{115,124},{170,229},{160,193},{44,186},{152,211},{167,251},{108,253},{38,113},{52,109},{10,63},{96,299},{21,117},{83,87},{217,222},{242,300},{22,115},{102,134},{123,168},{13,284},{217,255},{21,57},{101,113},{270,279},{23,129},{32,174},{47,178},{51,113},{119,176},{99,202},{50,112},{199,270},{247,295},{108,258},{36,94},{200,254},{27,172},{21,281},{21,132},{1,13},{77,289},{255,289},{39,79},{59,184},{84,243},{58,76},{17,219},{99,172},{66,254},{39,133},{5,204},{236,271},{39,54},{182,198},{85,150},{15,170},{67,238},{197,277},{23,210},{61,63},{169,244},{185,280},{38,43},{40,67},{76,218},{7,256},{162,225},{289,290},{114,178},{7,25},{44,175},{136,153},{29,259},{24,280},{89,106},{17,58},{48,119},{122,179},{187,254},{125,259},{249,271},{89,251},{82,121},{56,148},{111,148},{185,233},{6,8},{189,208},{112,203},{176,275},{36,182},{104,252},{144,284},{118,208},{61,105},{177,225},{45,235},{166,170},{213,269},{135,281},{133,231},{21,162},{71,180},{49,182},{50,243},{18,240},{93,108},{47,157},{4,186},{2,195},{68,248},{116,256},{160,250},{57,132},{15,210},{246,299},{80,184},{115,265},{241,282},{79,177},{159,189},{65,231},{205,259},{248,286},{3,135},{16,213},{55,229},{50,205},{6,95},{62,144},{138,166},{143,204},{25,60},{138,281},{111,173},{110,300},{51,190},{142,242},{25,228},{12,199},{89,94},{42,169},{41,158},{6,53},{69,150},{124,150},{81,199},{90,199},{16,178},{109,252},{90,244},{273,288},{23,151},{176,207},{27,124},{6,235},{237,248},{106,115},{155,288},{32,197},{61,103},{4,257},{250,298},{103,140},{29,234},{122,147},{150,265},{139,295},{84,100},{156,164},{211,272},{79,86},{50,164},{185,211},{150,282},{27,295},{100,263},{128,215},{253,272},{255,292},{48,147},{16,134},{127,263},{127,279},{105,198},{7,55},{48,184},{58,256},{131,195},{209,217},{40,246},{206,300},{124,140},{59,278},{125,279},{70,268},{100,171},{152,194},{24,160},{90,290},{122,226},{124,178},{85,145},{14,251},{35,114},{111,267},{111,275},{33,173},{139,176},{265,274},{147,224},{183,229},{182,296},{11,163},{187,217},{24,201},{263,280},{5,227},{11,126},{6,58},{233,246},{8,245},{140,250},{60,177},{164,212},{88,124},{76,247},{20,87},{6,49},{234,259},{57,124},{171,300},{12,75},{173,214},{168,281},{63,97},{80,264},{59,200},{111,135},{102,194},{36,163},{51,211},{46,139},{98,159},{81,285},{156,237},{13,146},{15,253},{115,165},{92,104},{38,70},{21,143},{47,252},{101,224},{120,121},{50,77},{235,261},{250,300},{61,299},{78,255},{85,185},{18,109},{20,296},{213,286},{35,233},{230,287},{146,250},{108,295},{33,164},{54,127},{181,213},{130,238},{153,243},{85,196},{118,215},{60,120},{47,174},{94,132},{189,215},{30,233},{25,272},{46,52},{132,252},{201,235},{96,161},{238,248},{76,120},{58,158},{150,257},{148,187},{272,278},{26,55},{30,57},{18,31},{112,251},{124,134},{25,142},{181,259},{36,165},{60,244},{53,278},{41,110},{99,184},{36,194},{155,273},{11,209},{70,162},{84,262},{6,239},{47,260},{49,101},{157,169},{27,184},{127,166},{69,239},{126,143},{26,105},{139,169},{11,214},{88,202},{165,257},{58,177},{28,243},{40,145},{201,300},{16,68},{87,177},{59,242},{137,141},{91,259},{49,83},{108,243},{205,220},{54,65},{93,220},{206,219},{35,226},{273,278},{40,210},{46,98},{80,176},{61,268},{23,152},{189,287},{16,247},{29,277},{116,144},{169,296},{32,182},{69,298},{5,241},{56,253},{217,270},{42,252},{5,239},{159,171},{233,296},{86,296},{59,118},{41,76},{94,128},{120,134},{48,280},{25,186},{159,210},{12,100},{69,172},{114,136},{168,251},{256,286},{36,223},{11,54},{40,216},{200,255},{62,81},{105,130},{161,174},{29,152},{149,175},{38,114},{191,233},{70,78},{107,230},{26,46},{47,197},{60,197},{24,211},{149,196},{49,181},{15,132},{110,254},{131,253},{80,200},{117,297},{54,183},{120,274},{88,118},{226,272},{109,210},{71,204},{153,284},{23,107},{42,199},{72,203},{99,250},{56,135},{14,108},{125,195},{6,39},{25,242},{141,208},{102,149},{79,216},{197,267},{53,270},{134,164},{77,103},{178,258},{49,130},{142,274},{79,88},{26,186},{128,294},{62,76},{150,185},{14,300},{19,81},{55,107},{110,257},{170,291},{52,218},{165,209},{166,272},{25,143},{105,114},{4,180},{188,197},{36,130},{33,275},{17,234},{191,205},{227,282},{102,215},{177,296},{66,223},{38,163},{211,244},{47,67},{95,196},{113,209},{218,277},{34,103},{26,169},{164,215},{70,181},{9,246},{90,216},{22,86},{117,193},{107,226},{11,162},{87,268},{249,293},{210,283},{60,184},{118,246},{160,224},{99,179},{34,275},{111,123},{27,168},{51,204},{52,142},{5,39},{18,158},{132,134},{147,153},{77,118},{71,241},{1,171},{24,135},{51,138},{133,236},{135,173},{59,186},{144,208},{34,298},{96,292},{92,262},{132,255},{117,283},{3,229},{55,128},{178,286},{77,183},{113,150},{193,300},{78,174},{125,190},{73,88},{70,249},{229,254},{130,189},{12,99},{16,96},{57,186},{219,255},{252,288},{109,135},{69,159},{3,239},{93,250},{78,244},{157,226},{192,233},{67,213},{229,275},{219,222},{78,287},{78,168},{250,291},{94,111},{108,125},{270,293},{99,230},{5,89},{11,281},{87,152},{252,253},{50,69},{65,95},{160,215},{45,167},{2,136},{5,164},{172,300},{98,264},{181,273},{15,50},{51,179},{6,295},{14,267},{25,278},{52,227},{129,205},{31,152},{28,80},{202,222},{42,253},{185,215},{97,252},{17,88},{178,280},{42,78},{54,218},{27,174},{32,143},{63,164},{158,216},{187,247},{9,136},{11,222},{131,187},{100,296},{43,149},{26,76},{42,130},{94,291},{192,256},{71,265},{10,41},{150,273},{79,278},{238,292},{3,119},{24,230},{63,245},{3,218},{65,96},{18,64},{6,148},{195,300},{249,267},{205,217},{65,241},{78,223},{137,188},{152,272},{71,107},{102,281},{25,127},{17,45},{100,248},{103,160},{90,293},{118,174},{106,150},{42,255},{149,187},{163,275},{8,37},{1,60},{100,245},{134,172},{15,83},{4,163},{134,220},{96,121},{71,147},{130,137},{128,140},{56,230},{167,198},{11,235},{67,245},{69,205},{16,162},{241,269},{113,298},{109,183},{200,228},{31,255},{15,39},{265,282}}
